Route #1: 4 7 42 31 20 46 26
Route #2: 21 33 34 3 37
Route #3: 36 15 11 51 2 17 14
Route #4: 32 38 16 40 53 5 10 12
Route #5: 47 39 49 9 35 43
Route #6: 8 6 45 1
Route #7: 23 52 24 44 50 48 18
Route #8: 29 41 25
Route #9: 28 54 13 27 19 22 30
Cost 1073
Time 0.080863
